10J3M/DAT/10J3MUNR-3.dat
10 3
48.7029 10.2094
4.894 45.6279
7.7164 13.2212
31.4092 8.5511
30.1087 22.8551
31.4845 16.6241
26.8052 7.5935
42.6018 35.3295
3.6131 22.9287
13.487 46.5609
229.5014