10J3M/SOL/10J3MUNR-3.sol
solution status: optimal solution found
objective value:                              95.7477
x#1#3                                               1 	(obj:0)
x#2#2                                               1 	(obj:0)
x#3#1                                               1 	(obj:0)
x#4#3                                               1 	(obj:0)
x#5#3                                               1 	(obj:0)
x#6#1                                               1 	(obj:0)
x#7#1                                               1 	(obj:0)
x#8#2                                               1 	(obj:0)
x#9#1                               0.635845806142962 	(obj:0)
x#9#2                              0.0191717158862468 	(obj:0)
x#9#3                               0.344982477970791 	(obj:0)
x#10#1                                              1 	(obj:0)
z                                             95.7477 	(obj:1)
